\ Model shortest_paths_copy
\ LP format - for model browsing. Use MPS format to capture full model detail.
Minimize
 
Subject To
 netflow[3_0]: x[3_0,3^0,3] + x[3_0,3^1,3] + x[3_0,3^2,3] = 0
 netflow[3^0]: - x[3_0,3^0,3] + x[3^0,4_0,3] = -1
Bounds
 x[3_0,3^0,3] free
End
